40
77
10
82
11
76
54
98
15
49
92
53
21
1 20
1 27
1 28
1 39
2 11
2 16
2 22
3 5
3 20
3 27
3 29
3 30
3 38
4 13
4 28
4 39
5 8
5 22
5 26
6 15
6 19
6 21
6 24
7 18
7 24
8 9
8 17
8 18
9 10
9 11
9 34
10 13
10 26
10 31
10 36
11 19
11 22
11 32
11 37
12 24
13 23
13 27
13 29
13 37
14 29
14 31
15 16
15 18
15 23
16 26
16 37
16 38
17 21
17 23
17 30
17 34
17 37
18 19
18 26
18 30
19 28
20 38
21 26
21 33
21 36
22 26
23 26
23 35
24 34
25 29
26 32
28 29
29 32
31 32
31 39
32 35
35 39
29 33 21 7
38 14 0 24
20 34 19 17
32 8 27 22
3 37 11 18
39 6 2 35
15 31 5 12
13 26 36 23
9 1 30 28
16 10 4 25
